Composing flight crews/problem2.sol
# Solution for model problem2
# Objective value = 4
Z 4
x_12 1
x_23 0
x_24 0
x_26 0
x_36 0
x_37 1
x_45 1
x_46 0
x_56 0
x_58 0
x_67 0
x_68 1
